c preprocessed version of munin1-wpp, 63 vertices, 180 edges
p td 63 180
0 1
35 0
2 1
11 1
21 1
35 1
2 3
2 32
2 20
2 12
11 2
21 2
4 3
5 3
11 3
21 3
5 4
6 5
30 5
28 5
6 7
6 14
6 29
6 36
6 50
6 44
30 6
6 31
34 6
37 6
28 6
54 6
56 6
8 7
28 7
25 7
8 9
8 10
25 8
10 9
11 10
21 10
11 12
11 32
11 22
11 26
11 46
11 55
11 43
11 20
11 21
51 11
13 12
12 58
21 12
13 14
15 13
13 58
15 14
30 14
28 14
16 15
24 15
25 15
16 17
16 34
16 35
24 16
18 17
29 17
24 17
19 18
20 18
29 18
19 20
21 20
21 22
21 26
21 46
21 55
21 43
51 21
23 22
36 22
24 23
23 36
25 23
25 24
25 26
25 27
56 25
25 57
27 26
28 27
57 27
28 29
28 30
28 34
28 36
28 37
28 50
28 44
52 28
54 28
53 28
56 28
57 28
30 29
31 30
34 30
31 32
31 33
33 32
34 35
37 38
49 37
38 39
38 55
49 38
40 39
45 39
55 39
40 41
40 44
40 45
40 51
40 52
40 53
40 54
42 41
43 41
41 44
43 42
45 46
45 47
49 45
45 48
46 47
47 48
47 50
49 48
50 48
52 51
53 52
54 53
56 57
59 62
59 0
59 4
59 60
59 9
59 33
59 19
59 58
59 61
59 36
59 57
60 62
60 0
60 4
60 9
60 19
60 58
60 42
60 47
60 61
60 36
60 38
60 53
60 57
61 62
61 47
61 42
61 38
61 53
62 0
62 33
62 4
62 58
62 19
